peakDumbCharging = 7400; 
Machine = anon_enum(16); 
machineSpeed = [3700,3700,3700,3700,3700,3700,3700,3700,3700,3700,3700,3700,3700,3700,3700,3700]; 
machineLoad = [3700,3700,3700,3700,3700,3700,3700,3700,3700,3700,3700,3700,3700,3700,3700,3700]; 
Car = anon_enum(8); 
demandCar = [2000,13960,8000,5480,3760,9320,2880,8680]; 
arrivalCar = [70,63,60,58,51,50,48,43]; 
departureCar = [72,68,63,60,53,57,62,46]; 
